decision_x1=[0,7];
decision_x2=[0,7];
decision_x3=[0,7];
decision_x4=[0,7];
decision_x5=[0,7];
decision_x6=[0,7];
decision_x7=[0,7];
decision_x8=[0,7];
decision_x9=[0,7];
decision_x10=[0,7];
decision_x11=[0,7];
decision_x12=[0,7];
decision_x13=[0,7];
decision_x14=[0,7];
random_y1=[0,7];
random_y2=[0,7];
random_y3=[0,7];
random_y4=[0,7];
random_y5=[0,7];
random_y6=[0,7];
constraint_x2_x1=[
0,0,9.6|
0,1,0.2|
0,2,7.8|
0,3,3.9|
0,4,4.3|
0,5,3.9|
0,6,6.2|
0,7,1|
1,0,3.6|
1,1,3.5|
1,2,9.7|
1,3,3.5|
1,4,5.2|
1,5,9.4|
1,6,2.4|
1,7,1.5|
2,0,7.1|
2,1,9.1|
2,2,5.2|
2,3,1.8|
2,4,7.7|
2,5,3.6|
2,6,8.2|
2,7,9.9|
3,0,5.3|
3,1,5.1|
3,2,9.2|
3,3,7|
3,4,3|
3,5,9.8|
3,6,0.62|
3,7,9.9|
4,0,0.34|
4,1,4.3|
4,2,8.4|
4,3,2.2|
4,4,8.1|
4,5,6.2|
4,6,6.8|
4,7,1.1|
5,0,8.3|
5,1,3.8|
5,2,6.9|
5,3,3.7|
5,4,4.9|
5,5,1.3|
5,6,3.9|
5,7,4.6|
6,0,9.5|
6,1,6.3|
6,2,1|
6,3,4.8|
6,4,4.5|
6,5,2.8|
6,6,4.8|
6,7,4|
7,0,2.6|
7,1,1|
7,2,0.44|
7,3,5.7|
7,4,3.2|
7,5,5.3|
7,6,8|
7,7,5.6|
];
constraint_x3_x2=[
0,0,6.1|
0,1,4.7|
0,2,10|
0,3,8.7|
0,4,3.8|
0,5,6.9|
0,6,9.3|
0,7,6.7|
1,0,2.7|
1,1,3.3|
1,2,0.5|
1,3,2.6|
1,4,7|
1,5,2.3|
1,6,8.1|
1,7,8.8|
2,0,7.5|
2,1,4.9|
2,2,10|
2,3,1.4|
2,4,5.5|
2,5,1.5|
2,6,0.73|
2,7,4.5|
3,0,9.1|
3,1,6.6|
3,2,2.8|
3,3,6.2|
3,4,6.7|
3,5,3.2|
3,6,2.8|
3,7,9.6|
4,0,9.3|
4,1,6.6|
4,2,4|
4,3,0.61|
4,4,7.2|
4,5,7.5|
4,6,1.9|
4,7,0.89|
5,0,6.9|
5,1,0.25|
5,2,1.3|
5,3,4|
5,4,3.6|
5,5,3|
5,6,0.78|
5,7,5.1|
6,0,6.1|
6,1,3.8|
6,2,2.5|
6,3,4.6|
6,4,6.3|
6,5,7.7|
6,6,3|
6,7,3.7|
7,0,7.4|
7,1,4.6|
7,2,1.7|
7,3,7.6|
7,4,2.2|
7,5,4.4|
7,6,8.5|
7,7,3.7|
];
constraint_x4_x3=[
0,0,2.7|
0,1,6.3|
0,2,2.7|
0,3,3|
0,4,5.5|
0,5,4.9|
0,6,2.1|
0,7,7.7|
1,0,9.7|
1,1,6.6|
1,2,7.6|
1,3,6.8|
1,4,1.9|
1,5,0.67|
1,6,6.6|
1,7,6.6|
2,0,3.8|
2,1,9.8|
2,2,9|
2,3,6.6|
2,4,5.8|
2,5,6.1|
2,6,6|
2,7,1.6|
3,0,5.1|
3,1,5.6|
3,2,5.7|
3,3,4.7|
3,4,2.7|
3,5,3.5|
3,6,5.6|
3,7,9.1|
4,0,5.5|
4,1,1.7|
4,2,6|
4,3,3.6|
4,4,5.9|
4,5,9.6|
4,6,9.2|
4,7,6.1|
5,0,2.5|
5,1,0.31|
5,2,8.2|
5,3,5.7|
5,4,8.9|
5,5,5.4|
5,6,4.5|
5,7,5.3|
6,0,9|
6,1,8.8|
6,2,4.9|
6,3,4.2|
6,4,5.4|
6,5,8|
6,6,6.7|
6,7,2|
7,0,5.7|
7,1,8.2|
7,2,2.4|
7,3,2.2|
7,4,7.1|
7,5,5.3|
7,6,3.9|
7,7,10|
];
constraint_x5_x1=[
0,0,9.7|
0,1,2.2|
0,2,1.1|
0,3,8.5|
0,4,6.1|
0,5,8.2|
0,6,2.8|
0,7,5.8|
1,0,4.8|
1,1,4.6|
1,2,2.2|
1,3,4|
1,4,8|
1,5,6.3|
1,6,8.1|
1,7,9.6|
2,0,1.9|
2,1,5.5|
2,2,7.8|
2,3,6.9|
2,4,3|
2,5,1.5|
2,6,4.7|
2,7,6.9|
3,0,6.4|
3,1,8.8|
3,2,1.7|
3,3,2.6|
3,4,3.5|
3,5,4.4|
3,6,2.7|
3,7,1.9|
4,0,7|
4,1,9.7|
4,2,8.8|
4,3,9.4|
4,4,3.4|
4,5,1.3|
4,6,5.1|
4,7,3.1|
5,0,4.6|
5,1,8.2|
5,2,3.9|
5,3,5.7|
5,4,9.2|
5,5,7.7|
5,6,0.11|
5,7,7|
6,0,4|
6,1,9.2|
6,2,3.1|
6,3,1.4|
6,4,5|
6,5,1.9|
6,6,9.1|
6,7,1.2|
7,0,7.5|
7,1,1.6|
7,2,3|
7,3,8.5|
7,4,6.5|
7,5,3.3|
7,6,9.5|
7,7,0.79|
];
constraint_x6_x2=[
0,0,1.4|
0,1,5.4|
0,2,6.4|
0,3,2.4|
0,4,5.7|
0,5,8.8|
0,6,0.064|
0,7,1.9|
1,0,4.1|
1,1,3.9|
1,2,9.1|
1,3,6.8|
1,4,1.5|
1,5,9.2|
1,6,2.8|
1,7,9.9|
2,0,2.5|
2,1,0.85|
2,2,0.14|
2,3,0.69|
2,4,7.1|
2,5,7.7|
2,6,10|
2,7,8.4|
3,0,1.9|
3,1,7.2|
3,2,0.75|
3,3,8.2|
3,4,1|
3,5,8.9|
3,6,0.68|
3,7,3.7|
4,0,1.1|
4,1,8.7|
4,2,0.096|
4,3,0.65|
4,4,2.3|
4,5,5.7|
4,6,5|
4,7,9.5|
5,0,9.9|
5,1,4.8|
5,2,0.97|
5,3,2.8|
5,4,2.4|
5,5,8.8|
5,6,2.7|
5,7,2.6|
6,0,0.73|
6,1,7.4|
6,2,1.1|
6,3,7.7|
6,4,1.1|
6,5,9.9|
6,6,2.7|
6,7,8.9|
7,0,3.4|
7,1,3.7|
7,2,8.4|
7,3,9.4|
7,4,6.7|
7,5,9.3|
7,6,7.5|
7,7,0.42|
];
constraint_x6_x5=[
0,0,8.4|
0,1,2.3|
0,2,8|
0,3,2.3|
0,4,3.1|
0,5,0.29|
0,6,1.7|
0,7,3.7|
1,0,3.3|
1,1,3.1|
1,2,7|
1,3,3|
1,4,2.1|
1,5,7.7|
1,6,0.04|
1,7,1.5|
2,0,6.5|
2,1,6.1|
2,2,9.1|
2,3,0.51|
2,4,2.5|
2,5,8.1|
2,6,1.3|
2,7,8.5|
3,0,2.5|
3,1,6.3|
3,2,9.7|
3,3,3.6|
3,4,2.6|
3,5,6.4|
3,6,0.89|
3,7,4.7|
4,0,6.3|
4,1,7.5|
4,2,0.99|
4,3,4.4|
4,4,0.18|
4,5,4.7|
4,6,3.3|
4,7,4.5|
5,0,3.9|
5,1,9|
5,2,4.2|
5,3,6.1|
5,4,7.7|
5,5,0.7|
5,6,4.1|
5,7,5.5|
6,0,8.1|
6,1,1.3|
6,2,5.9|
6,3,4.8|
6,4,3.2|
6,5,5.2|
6,6,7.8|
6,7,7.3|
7,0,3.8|
7,1,9.9|
7,2,1.8|
7,3,2|
7,4,3|
7,5,9.3|
7,6,7.5|
7,7,2.3|
];
constraint_x7_x3=[
0,0,0.8|
0,1,4.8|
0,2,2.3|
0,3,0.76|
0,4,5.2|
0,5,4.6|
0,6,5.9|
0,7,1.8|
1,0,6.8|
1,1,9|
1,2,2.4|
1,3,6.9|
1,4,1.7|
1,5,8.1|
1,6,2.3|
1,7,4.1|
2,0,8.6|
2,1,8|
2,2,1.8|
2,3,2.5|
2,4,4.8|
2,5,7.9|
2,6,4.9|
2,7,1.1|
3,0,7.6|
3,1,6|
3,2,4.1|
3,3,5.9|
3,4,5|
3,5,5.8|
3,6,6|
3,7,3.6|
4,0,8.5|
4,1,9.1|
4,2,2|
4,3,7|
4,4,2.3|
4,5,6|
4,6,2.4|
4,7,4.1|
5,0,5.7|
5,1,5|
5,2,7.9|
5,3,5|
5,4,3.8|
5,5,8.1|
5,6,4.4|
5,7,9.5|
6,0,5|
6,1,5.1|
6,2,6.7|
6,3,3.4|
6,4,9.7|
6,5,6.6|
6,6,0.61|
6,7,8.2|
7,0,6.2|
7,1,6|
7,2,1.3|
7,3,4.8|
7,4,4.2|
7,5,6.5|
7,6,2.2|
7,7,8.8|
];
constraint_x7_x6=[
0,0,2.7|
0,1,9.8|
0,2,2.8|
0,3,3|
0,4,9.4|
0,5,8.3|
0,6,6.9|
0,7,0.66|
1,0,1.9|
1,1,7.5|
1,2,3.4|
1,3,5.6|
1,4,0.73|
1,5,8.7|
1,6,5.6|
1,7,2.8|
2,0,6.1|
2,1,4.9|
2,2,7.3|
2,3,5.9|
2,4,6.7|
2,5,5.7|
2,6,6.6|
2,7,7.1|
3,0,2.3|
3,1,9.1|
3,2,6.6|
3,3,6.2|
3,4,7.6|
3,5,3.2|
3,6,8.9|
3,7,1.1|
4,0,6.8|
4,1,8.9|
4,2,6.4|
4,3,6.2|
4,4,4.2|
4,5,9.9|
4,6,8.4|
4,7,7.9|
5,0,5.9|
5,1,7|
5,2,1.4|
5,3,9.4|
5,4,1.5|
5,5,6.8|
5,6,7.5|
5,7,0.0033|
6,0,3|
6,1,8|
6,2,7.6|
6,3,4.9|
6,4,9.1|
6,5,7.9|
6,6,5.7|
6,7,1.8|
7,0,1.2|
7,1,0.88|
7,2,0.69|
7,3,8.9|
7,4,5|
7,5,8.4|
7,6,0.26|
7,7,1.8|
];
constraint_x8_x4=[
0,0,10|
0,1,4.4|
0,2,7.7|
0,3,5.1|
0,4,5|
0,5,0.92|
0,6,6|
0,7,1.7|
1,0,6.8|
1,1,0.2|
1,2,1.2|
1,3,6.5|
1,4,1.1|
1,5,7.4|
1,6,6.9|
1,7,4.6|
2,0,4.5|
2,1,3|
2,2,3.7|
2,3,5.8|
2,4,5.2|
2,5,7.8|
2,6,1.2|
2,7,8|
3,0,7.6|
3,1,7.8|
3,2,9.5|
3,3,7.8|
3,4,7|
3,5,1.8|
3,6,6.1|
3,7,6.7|
4,0,6.6|
4,1,2.1|
4,2,1.6|
4,3,0.87|
4,4,1|
4,5,8.8|
4,6,5|
4,7,6.3|
5,0,8.2|
5,1,3.8|
5,2,0.78|
5,3,0.7|
5,4,8.6|
5,5,1.1|
5,6,2.3|
5,7,2.3|
6,0,6.8|
6,1,5.6|
6,2,6|
6,3,1.9|
6,4,4.7|
6,5,2.2|
6,6,0.45|
6,7,6.4|
7,0,5.9|
7,1,8.3|
7,2,8.4|
7,3,9.2|
7,4,4.3|
7,5,3.6|
7,6,8.2|
7,7,4.4|
];
constraint_x8_x7=[
0,0,6.4|
0,1,2.7|
0,2,9.5|
0,3,9.3|
0,4,2.6|
0,5,1.7|
0,6,6.7|
0,7,2.4|
1,0,6.5|
1,1,0.39|
1,2,8.5|
1,3,6.2|
1,4,4.8|
1,5,0.0092|
1,6,7.6|
1,7,1.1|
2,0,3.6|
2,1,1.1|
2,2,3.1|
2,3,4.2|
2,4,2.9|
2,5,2.6|
2,6,6.2|
2,7,3|
3,0,2.7|
3,1,5.4|
3,2,6.2|
3,3,7.2|
3,4,6.2|
3,5,1.4|
3,6,8.7|
3,7,4.3|
4,0,9.4|
4,1,0.35|
4,2,6|
4,3,9.8|
4,4,0.61|
4,5,4.8|
4,6,2.6|
4,7,3.4|
5,0,1.1|
5,1,9.2|
5,2,2.5|
5,3,8.1|
5,4,2.6|
5,5,0.12|
5,6,9.5|
5,7,9.6|
6,0,0.72|
6,1,4.4|
6,2,3.3|
6,3,9.2|
6,4,9.4|
6,5,7.5|
6,6,7.2|
6,7,5.3|
7,0,3.1|
7,1,2|
7,2,8.3|
7,3,5.2|
7,4,8.6|
7,5,1.4|
7,6,8.4|
7,7,6.8|
];
constraint_x9_x5=[
0,0,4|
0,1,5.6|
0,2,7.1|
0,3,7.3|
0,4,3.5|
0,5,4.6|
0,6,3.4|
0,7,3.6|
1,0,5.6|
1,1,4|
1,2,3.2|
1,3,1.5|
1,4,8.5|
1,5,9.3|
1,6,6.5|
1,7,10|
2,0,3.8|
2,1,7.8|
2,2,3.8|
2,3,3|
2,4,3.4|
2,5,7.4|
2,6,5.3|
2,7,7.6|
3,0,9|
3,1,0.2|
3,2,6.3|
3,3,3.6|
3,4,5.5|
3,5,6.7|
3,6,2.3|
3,7,8.3|
4,0,1.9|
4,1,8.8|
4,2,0.86|
4,3,1.8|
4,4,7|
4,5,3.7|
4,6,5.6|
4,7,9|
5,0,0.79|
5,1,9.6|
5,2,9.8|
5,3,4.6|
5,4,2.7|
5,5,3|
5,6,9.2|
5,7,5.5|
6,0,3.7|
6,1,6.7|
6,2,8|
6,3,2.9|
6,4,2.2|
6,5,4.4|
6,6,2|
6,7,4.3|
7,0,6.3|
7,1,8.9|
7,2,0.76|
7,3,0.53|
7,4,5.7|
7,5,3|
7,6,5.5|
7,7,3.8|
];
constraint_x10_x6=[
0,0,2.9|
0,1,7.7|
0,2,7.4|
0,3,4.2|
0,4,2.9|
0,5,5.6|
0,6,5.9|
0,7,2.4|
1,0,7.4|
1,1,3.4|
1,2,1.4|
1,3,3.5|
1,4,6.3|
1,5,6.8|
1,6,6.9|
1,7,5.8|
2,0,8.8|
2,1,9.1|
2,2,6.3|
2,3,5.9|
2,4,6.2|
2,5,6.5|
2,6,4|
2,7,1.9|
3,0,4.3|
3,1,3.7|
3,2,6.5|
3,3,2.1|
3,4,1.4|
3,5,3.5|
3,6,3.8|
3,7,5.5|
4,0,8.5|
4,1,8.6|
4,2,7|
4,3,9.8|
4,4,3.2|
4,5,4.4|
4,6,4.3|
4,7,1.5|
5,0,6.6|
5,1,3.8|
5,2,1.9|
5,3,6.4|
5,4,5.8|
5,5,0.66|
5,6,6.1|
5,7,2.2|
6,0,7.3|
6,1,9.5|
6,2,9.2|
6,3,4.6|
6,4,7|
6,5,0.67|
6,6,5.6|
6,7,2.2|
7,0,6.8|
7,1,3.4|
7,2,5.8|
7,3,0.53|
7,4,3.8|
7,5,4.8|
7,6,3.2|
7,7,7.5|
];
constraint_x10_x9=[
0,0,8.3|
0,1,9|
0,2,2.7|
0,3,3.4|
0,4,8.3|
0,5,5.4|
0,6,0.42|
0,7,2.3|
1,0,8.7|
1,1,2|
1,2,6.1|
1,3,2.1|
1,4,6.3|
1,5,10|
1,6,7.2|
1,7,9.2|
2,0,4.4|
2,1,7|
2,2,9|
2,3,4.7|
2,4,9.3|
2,5,9.5|
2,6,3.1|
2,7,0.14|
3,0,0.65|
3,1,7.2|
3,2,7.6|
3,3,6.3|
3,4,4.1|
3,5,8.3|
3,6,3.1|
3,7,4.6|
4,0,2.6|
4,1,5|
4,2,2|
4,3,4.7|
4,4,4|
4,5,4.5|
4,6,5.4|
4,7,7.6|
5,0,4.6|
5,1,5.8|
5,2,8.4|
5,3,4|
5,4,2.8|
5,5,5.7|
5,6,0.094|
5,7,4.2|
6,0,5.9|
6,1,0.78|
6,2,2|
6,3,1.3|
6,4,6.4|
6,5,3.3|
6,6,6.7|
6,7,9.8|
7,0,6.3|
7,1,5.5|
7,2,4.3|
7,3,4.6|
7,4,0.35|
7,5,5.5|
7,6,4.2|
7,7,6.3|
];
constraint_x11_x7=[
0,0,8.3|
0,1,2.5|
0,2,3.2|
0,3,6.3|
0,4,6.6|
0,5,7.3|
0,6,2.4|
0,7,8.8|
1,0,9.2|
1,1,3.4|
1,2,3.3|
1,3,9.6|
1,4,9.6|
1,5,6.1|
1,6,6.9|
1,7,6.2|
2,0,6.7|
2,1,7.8|
2,2,3.9|
2,3,0.52|
2,4,6.6|
2,5,4|
2,6,9|
2,7,7.8|
3,0,4.4|
3,1,2|
3,2,2.4|
3,3,9.3|
3,4,3.6|
3,5,6.4|
3,6,9.9|
3,7,1.2|
4,0,1.6|
4,1,7.1|
4,2,3.7|
4,3,8|
4,4,3.5|
4,5,8.8|
4,6,2|
4,7,1.6|
5,0,4.6|
5,1,3.8|
5,2,2.8|
5,3,8.7|
5,4,6.5|
5,5,10|
5,6,8.3|
5,7,1.9|
6,0,9.3|
6,1,5.7|
6,2,3.6|
6,3,7.8|
6,4,5.2|
6,5,0.58|
6,6,9.4|
6,7,7|
7,0,0.72|
7,1,4.4|
7,2,2.9|
7,3,9.9|
7,4,3.7|
7,5,6.4|
7,6,6.4|
7,7,6.7|
];
constraint_x11_x10=[
0,0,7.8|
0,1,9.2|
0,2,6.3|
0,3,6.4|
0,4,7.4|
0,5,7.2|
0,6,5|
0,7,0.24|
1,0,1.8|
1,1,3.5|
1,2,1.6|
1,3,9.4|
1,4,7.3|
1,5,8.9|
1,6,6.5|
1,7,6.1|
2,0,7.3|
2,1,0.42|
2,2,1.1|
2,3,9.9|
2,4,4.9|
2,5,1.5|
2,6,7.9|
2,7,4.9|
3,0,0.94|
3,1,9.8|
3,2,3.5|
3,3,0.11|
3,4,7.1|
3,5,9.5|
3,6,2.6|
3,7,2.6|
4,0,4.3|
4,1,4|
4,2,4.8|
4,3,3.9|
4,4,0.79|
4,5,2.7|
4,6,4.8|
4,7,3.1|
5,0,4.1|
5,1,7.4|
5,2,7.9|
5,3,7.6|
5,4,1.3|
5,5,2.9|
5,6,4.9|
5,7,3.4|
6,0,5.6|
6,1,8|
6,2,2.6|
6,3,7.2|
6,4,7.1|
6,5,9|
6,6,2|
6,7,2.2|
7,0,0.17|
7,1,8.5|
7,2,6|
7,3,1.9|
7,4,6.4|
7,5,6.7|
7,6,9|
7,7,1.1|
];
constraint_x12_x8=[
0,0,2.5|
0,1,2.5|
0,2,4.5|
0,3,6.7|
0,4,9.2|
0,5,8.7|
0,6,4.4|
0,7,6|
1,0,1.3|
1,1,1.7|
1,2,4.2|
1,3,6.9|
1,4,6|
1,5,0.55|
1,6,2.9|
1,7,3.7|
2,0,6.6|
2,1,3.2|
2,2,1.6|
2,3,9.4|
2,4,9.3|
2,5,6.4|
2,6,7.2|
2,7,4|
3,0,6.2|
3,1,2|
3,2,9|
3,3,2.6|
3,4,5.8|
3,5,7|
3,6,2.9|
3,7,6.5|
4,0,9|
4,1,5.1|
4,2,1.6|
4,3,0.67|
4,4,6.2|
4,5,8.4|
4,6,5.7|
4,7,9.3|
5,0,8|
5,1,5.3|
5,2,1.7|
5,3,4.9|
5,4,7|
5,5,9.1|
5,6,7|
5,7,7.5|
6,0,8.2|
6,1,1.3|
6,2,5.2|
6,3,0.48|
6,4,0.034|
6,5,6.4|
6,6,0.46|
6,7,8.5|
7,0,6.9|
7,1,2.6|
7,2,3.4|
7,3,3.5|
7,4,9|
7,5,4.5|
7,6,0.63|
7,7,1.6|
];
constraint_x12_x11=[
0,0,0.58|
0,1,8.5|
0,2,8.6|
0,3,1.7|
0,4,2.7|
0,5,9.7|
0,6,9|
0,7,4.7|
1,0,6.4|
1,1,5.8|
1,2,8.3|
1,3,4.8|
1,4,9.4|
1,5,1.1|
1,6,3.4|
1,7,3.9|
2,0,1.7|
2,1,5.5|
2,2,3.7|
2,3,3.2|
2,4,7.8|
2,5,9.9|
2,6,1.2|
2,7,8.9|
3,0,0.18|
3,1,5.3|
3,2,5.5|
3,3,3|
3,4,0.81|
3,5,9.5|
3,6,3.5|
3,7,8.1|
4,0,3.2|
4,1,6.9|
4,2,4.7|
4,3,8.5|
4,4,2.3|
4,5,6|
4,6,7.4|
4,7,7.1|
5,0,6.5|
5,1,1.6|
5,2,9.6|
5,3,4.5|
5,4,2.2|
5,5,4.4|
5,6,4|
5,7,4.8|
6,0,8.6|
6,1,9.2|
6,2,0.93|
6,3,7.8|
6,4,5|
6,5,4.5|
6,6,1.7|
6,7,9.9|
7,0,2.8|
7,1,5.2|
7,2,4.3|
7,3,2.6|
7,4,5|
7,5,6.3|
7,6,2.9|
7,7,7.3|
];
constraint_x13_x9=[
0,0,9.7|
0,1,3.5|
0,2,1.6|
0,3,6.5|
0,4,8.8|
0,5,4.6|
0,6,3.1|
0,7,2.3|
1,0,8.2|
1,1,1.9|
1,2,3.8|
1,3,6.9|
1,4,8.2|
1,5,5.3|
1,6,3.7|
1,7,1.2|
2,0,2|
2,1,9.6|
2,2,9.1|
2,3,1.2|
2,4,2.4|
2,5,7.2|
2,6,2.6|
2,7,7.7|
3,0,2.1|
3,1,1.9|
3,2,5.7|
3,3,8.9|
3,4,7.5|
3,5,7.1|
3,6,6.8|
3,7,7.1|
4,0,1.6|
4,1,5|
4,2,7.5|
4,3,9.5|
4,4,3.4|
4,5,6.7|
4,6,2.7|
4,7,2|
5,0,8.3|
5,1,2.7|
5,2,8.2|
5,3,5.2|
5,4,4|
5,5,3.7|
5,6,1.2|
5,7,0.044|
6,0,9.8|
6,1,1.9|
6,2,4.6|
6,3,2.7|
6,4,7.9|
6,5,4.4|
6,6,0.066|
6,7,6|
7,0,5.5|
7,1,6.4|
7,2,6|
7,3,5.7|
7,4,7.9|
7,5,1.3|
7,6,3.6|
7,7,6.7|
];
constraint_x14_x10=[
0,0,6.2|
0,1,7.3|
0,2,7.7|
0,3,3.4|
0,4,2.7|
0,5,7.1|
0,6,4.9|
0,7,9.7|
1,0,0.73|
1,1,7.8|
1,2,4.3|
1,3,6|
1,4,4.3|
1,5,7.6|
1,6,2.4|
1,7,6.5|
2,0,5.4|
2,1,8.1|
2,2,1.4|
2,3,1.1|
2,4,6.9|
2,5,7.2|
2,6,8.9|
2,7,8.7|
3,0,2.5|
3,1,1.2|
3,2,0.24|
3,3,3|
3,4,1.3|
3,5,8.9|
3,6,7.4|
3,7,9.3|
4,0,7.9|
4,1,4.6|
4,2,7.4|
4,3,1.3|
4,4,5.6|
4,5,4.6|
4,6,0.47|
4,7,1.7|
5,0,0.8|
5,1,9.8|
5,2,9.2|
5,3,6|
5,4,8.9|
5,5,2.5|
5,6,5.4|
5,7,9.6|
6,0,3.2|
6,1,6.9|
6,2,4.8|
6,3,2|
6,4,7.5|
6,5,3.7|
6,6,3.2|
6,7,6|
7,0,3.3|
7,1,9.5|
7,2,2.7|
7,3,5.3|
7,4,1.9|
7,5,0.37|
7,6,7.9|
7,7,8.8|
];
constraint_x1_y1=[
0,0,2|
0,1,9|
0,2,3|
0,3,2|
0,4,5.8|
0,5,6.2|
0,6,6.1|
0,7,8.1|
1,0,2.3|
1,1,9.1|
1,2,0.65|
1,3,8.1|
1,4,3.7|
1,5,9.4|
1,6,2|
1,7,1.4|
2,0,0.51|
2,1,3.1|
2,2,5.1|
2,3,4.5|
2,4,7.6|
2,5,9.5|
2,6,0.93|
2,7,1.5|
3,0,1.2|
3,1,1.2|
3,2,2.9|
3,3,8.7|
3,4,7.4|
3,5,7.4|
3,6,5.9|
3,7,9.5|
4,0,1.7|
4,1,8.5|
4,2,7.3|
4,3,0.96|
4,4,0.21|
4,5,4.6|
4,6,5.6|
4,7,4.4|
5,0,7|
5,1,8.6|
5,2,0.33|
5,3,2.4|
5,4,1.8|
5,5,3.8|
5,6,7.1|
5,7,9.5|
6,0,5.5|
6,1,4.1|
6,2,4.5|
6,3,7.2|
6,4,9.3|
6,5,9.6|
6,6,5.6|
6,7,7.4|
7,0,5.6|
7,1,1.8|
7,2,2.8|
7,3,7.4|
7,4,3.9|
7,5,6.9|
7,6,3.9|
7,7,0.56|
];
constraint_x2_y2=[
0,0,7.2|
0,1,9.8|
0,2,4.7|
0,3,1.9|
0,4,6.6|
0,5,0.72|
0,6,2.7|
0,7,5.3|
1,0,6.7|
1,1,8.8|
1,2,5.9|
1,3,7.6|
1,4,1.5|
1,5,3.3|
1,6,9.1|
1,7,9.6|
2,0,6.6|
2,1,9|
2,2,1.2|
2,3,4.6|
2,4,7.9|
2,5,5.1|
2,6,1.5|
2,7,3.1|
3,0,7.9|
3,1,0.58|
3,2,8.6|
3,3,6.1|
3,4,4|
3,5,0.77|
3,6,3.3|
3,7,5.4|
4,0,8.2|
4,1,8.9|
4,2,3.5|
4,3,5.6|
4,4,1.5|
4,5,9.2|
4,6,0.41|
4,7,5.6|
5,0,3.1|
5,1,3.9|
5,2,7.2|
5,3,3.1|
5,4,0.55|
5,5,8.8|
5,6,9.8|
5,7,8.1|
6,0,6.9|
6,1,7.8|
6,2,0.92|
6,3,5.3|
6,4,4.9|
6,5,9.9|
6,6,5.2|
6,7,2.7|
7,0,6|
7,1,5.2|
7,2,3.7|
7,3,6.2|
7,4,3.6|
7,5,5.1|
7,6,0.77|
7,7,8.5|
];
constraint_x3_y3=[
0,0,4.9|
0,1,3.1|
0,2,6.6|
0,3,6.2|
0,4,0.063|
0,5,5.5|
0,6,1.8|
0,7,9.4|
1,0,1.6|
1,1,4.5|
1,2,5.1|
1,3,4.3|
1,4,6.4|
1,5,3.7|
1,6,5.4|
1,7,1.5|
2,0,5.8|
2,1,9.2|
2,2,2.1|
2,3,4.7|
2,4,3.9|
2,5,6.9|
2,6,7.9|
2,7,0.93|
3,0,3.2|
3,1,4.3|
3,2,6|
3,3,4.9|
3,4,9|
3,5,2.9|
3,6,0.66|
3,7,9.5|
4,0,9.3|
4,1,6.3|
4,2,1.7|
4,3,1.5|
4,4,1.4|
4,5,8|
4,6,2.2|
4,7,4.4|
5,0,0.82|
5,1,0.61|
5,2,3.6|
5,3,6|
5,4,9.3|
5,5,4.4|
5,6,6.6|
5,7,5.1|
6,0,4.9|
6,1,6.7|
6,2,4.8|
6,3,4.3|
6,4,8.7|
6,5,9.8|
6,6,2.1|
6,7,9.8|
7,0,4.2|
7,1,8|
7,2,8.4|
7,3,4.2|
7,4,2.7|
7,5,5.6|
7,6,8.8|
7,7,7.4|
];
constraint_x4_y4=[
0,0,6.1|
0,1,1.3|
0,2,0.67|
0,3,4.8|
0,4,7.4|
0,5,6.2|
0,6,0.92|
0,7,4.8|
1,0,0.41|
1,1,9.4|
1,2,0.025|
1,3,0.59|
1,4,6.2|
1,5,1.8|
1,6,8.8|
1,7,7.5|
2,0,0.69|
2,1,8|
2,2,1.8|
2,3,7.3|
2,4,7.1|
2,5,0.027|
2,6,0.25|
2,7,1.4|
3,0,5.7|
3,1,6.6|
3,2,8.5|
3,3,8.8|
3,4,4.5|
3,5,3.9|
3,6,2.4|
3,7,0.55|
4,0,8.8|
4,1,9.7|
4,2,1.9|
4,3,7.8|
4,4,9.6|
4,5,3.9|
4,6,2.3|
4,7,3.1|
5,0,8.8|
5,1,1.7|
5,2,8.9|
5,3,9.1|
5,4,0.52|
5,5,1.6|
5,6,7.6|
5,7,9.4|
6,0,5.8|
6,1,7.6|
6,2,2.4|
6,3,1.4|
6,4,3|
6,5,5.6|
6,6,0.18|
6,7,4.4|
7,0,0.098|
7,1,7.3|
7,2,4.9|
7,3,7.5|
7,4,3.3|
7,5,1.3|
7,6,0.57|
7,7,1.2|
];
constraint_x5_y5=[
0,0,0.72|
0,1,9.1|
0,2,6.4|
0,3,2.9|
0,4,1.5|
0,5,9.5|
0,6,0.72|
0,7,4.9|
1,0,1.3|
1,1,9.6|
1,2,8.8|
1,3,3.3|
1,4,9.5|
1,5,6|
1,6,6.4|
1,7,2.7|
2,0,5.1|
2,1,5.9|
2,2,0.28|
2,3,3.7|
2,4,7.9|
2,5,2.9|
2,6,0.64|
2,7,7.1|
3,0,3.2|
3,1,1.3|
3,2,7.4|
3,3,3.1|
3,4,0.73|
3,5,8.1|
3,6,0.88|
3,7,7.6|
4,0,2.9|
4,1,0.91|
4,2,2.2|
4,3,5.5|
4,4,6.8|
4,5,1.7|
4,6,6.6|
4,7,8.7|
5,0,5.4|
5,1,3.5|
5,2,5.4|
5,3,2.3|
5,4,0.68|
5,5,5.7|
5,6,10|
5,7,1.3|
6,0,4.7|
6,1,3|
6,2,2.3|
6,3,1.5|
6,4,9.7|
6,5,3.3|
6,6,8.4|
6,7,8.1|
7,0,0.9|
7,1,8.4|
7,2,4.7|
7,3,8.9|
7,4,0.89|
7,5,5.5|
7,6,3.7|
7,7,1.6|
];
constraint_x6_y6=[
0,0,5.9|
0,1,1.3|
0,2,0.31|
0,3,6.7|
0,4,4.3|
0,5,4.5|
0,6,3|
0,7,9.2|
1,0,3.2|
1,1,0.34|
1,2,9|
1,3,0.4|
1,4,8|
1,5,4.8|
1,6,6|
1,7,9.8|
2,0,0.13|
2,1,4.7|
2,2,5.9|
2,3,3.2|
2,4,9.1|
2,5,7.3|
2,6,1.7|
2,7,9.9|
3,0,2.3|
3,1,2.2|
3,2,1.3|
3,3,7.7|
3,4,1.8|
3,5,8.5|
3,6,9.6|
3,7,0.85|
4,0,1.8|
4,1,3.4|
4,2,8.5|
4,3,7.6|
4,4,1.3|
4,5,7.4|
4,6,3.5|
4,7,8.6|
5,0,8.3|
5,1,8.3|
5,2,4.7|
5,3,3.7|
5,4,1|
5,5,4.2|
5,6,5.1|
5,7,1.6|
6,0,0.12|
6,1,5.8|
6,2,3.6|
6,3,2.4|
6,4,0.001|
6,5,7.8|
6,6,8.9|
6,7,8|
7,0,4.8|
7,1,5.3|
7,2,4.4|
7,3,7.2|
7,4,7.9|
7,5,6.3|
7,6,4.7|
7,7,4.1|
];
initial_distribution_y1=[0.029,0.26,0.0077,0.13,0.12,0.1,0.14,0.2];
initial_distribution_y2=[0.19,0.037,0.16,0.08,0.2,0.15,0.11,0.076];
initial_distribution_y3=[0.034,0.26,0.065,0.16,0.0085,0.17,0.18,0.14];
initial_distribution_y4=[0.18,0.2,0.058,0.017,0.11,0.16,0.16,0.12];
initial_distribution_y5=[0.091,0.059,0.096,0.067,0.22,0.16,0.11,0.19];
initial_distribution_y6=[0.2,0.0099,0.091,0.099,0.079,0.15,0.17,0.2];
transition_y1=[
0.094,0.061,0.16,0.18,0.057,0.096,0.17,0.18|
0.22,0.11,0.011,0.06,0.12,0.29,0.13,0.061|
0.16,0.18,0.18,0.082,0.11,0.12,0.052,0.12|
0.21,0.0028,0.12,0.21,0.0046,0.21,0.21,0.028|
0.12,0.14,0.16,0.091,0.062,0.13,0.14,0.16|
0.054,0.079,0.18,0.037,0.16,0.11,0.25,0.13|
0.027,0.18,0.1,0.23,0.045,0.17,0.19,0.05|
0.3,0.1,0.0074,0.023,0.27,0.042,0.15,0.11|
];
transition_y2=[
0.19,0.067,0.18,0.13,0.16,0.19,0.033,0.057|
0.26,0.0054,0.056,0.18,0.011,0.028,0.21,0.26|
0.17,0.058,0.058,0.1,0.2,0.15,0.075,0.18|
0.093,0.095,0.23,0.066,0.18,0.036,0.052,0.25|
0.053,0.13,0.16,0.15,0.13,0.12,0.14,0.11|
0.17,0.014,0.22,0.15,0.096,0.096,0.056,0.2|
0.18,0.052,0.074,0.016,0.19,0.19,0.16,0.13|
0.15,0.02,0.2,0.14,0.22,0.11,0.082,0.085|
];
transition_y3=[
0.075,0.16,0.085,0.14,0.15,0.14,0.18,0.059|
0.075,0.082,0.029,0.18,0.32,0.065,0.18,0.077|
0.14,0.12,0.1,0.17,0.24,0.1,0.046,0.075|
0.13,0.006,0.17,0.12,0.2,0.13,0.2,0.041|
0.19,0.24,0.11,0.08,0.022,0.03,0.056,0.27|
0.19,0.17,0.3,0.16,0.061,0.032,0.034,0.051|
0.16,0.043,0.33,0.028,0.05,0.13,0.15,0.11|
0.21,0.091,0.11,0.064,0.19,0.062,0.22,0.052|
];
transition_y4=[
0.16,0.079,0.14,0.093,0.13,0.2,0.078,0.12|
0.16,0.19,0.11,0.2,0.12,0.0093,0.15,0.062|
0.091,0.031,0.17,0.072,0.15,0.24,0.13,0.12|
0.1,0.24,0.058,0.059,0.21,0.11,0.21,0.011|
0.25,0.092,0.12,0.064,0.12,0.14,0.15,0.067|
0.088,0.12,0.11,0.16,0.14,0.033,0.2,0.16|
0.11,0.17,0.045,0.12,0.18,0.057,0.14,0.18|
0.085,0.22,0.12,0.17,0.071,0.19,0.057,0.083|
];
transition_y5=[
0.17,0.18,0.065,0.17,0.13,0.08,0.098,0.1|
0.087,0.022,0.082,0.14,0.21,0.097,0.2,0.15|
0.13,0.06,0.16,0.12,0.14,0.1,0.16,0.12|
0.16,0.047,0.17,0.19,0.17,0.074,0.18,0.0075|
0.21,0.055,0.23,0.21,0.04,0.18,0.014,0.065|
0.033,0.15,0.11,0.19,0.11,0.19,0.093,0.11|
0.16,0.16,0.12,0.06,0.077,0.11,0.18,0.14|
0.097,0.028,0.18,0.13,0.11,0.19,0.11,0.16|
];
transition_y6=[
0.07,0.17,0.034,0.17,0.19,0.025,0.29,0.054|
0.049,0.13,0.27,0.24,0.13,0.0042,0.094,0.082|
0.078,0.2,0.055,0.2,0.032,0.2,0.075,0.16|
0.029,0.27,0.11,0.098,0.2,0.034,0.19,0.081|
0.14,0.066,0.023,0.2,0.029,0.025,0.27,0.24|
0.31,0.11,0.02,0.079,0.1,0.017,0.26,0.1|
0.012,0.15,0.21,0.0082,0.22,0.067,0.16,0.17|
0.12,0.15,0.14,0.17,0.12,0.11,0.12,0.074|
];
